This is Ipopt version 3.12.3, running with linear solver mumps.
NOTE: Other linear solvers might be more efficient (see Ipopt documentation).

Number of nonzeros in equality constraint Jacobian...:        0
Number of nonzeros in inequality constraint Jacobian.:        0
Number of nonzeros in Lagrangian Hessian.............:        6

Total number of variables............................:        3
                     variables with only lower bounds:        3
                variables with lower and upper bounds:        0
                     variables with only upper bounds:        0
Total number of equality constraints.................:        0
Total number of inequality constraints...............:        0
        inequality constraints with only lower bounds:        0
   inequality constraints with lower and upper bounds:        0
        inequality constraints with only upper bounds:        0

iter    objective    inf_pr   inf_du lg(mu)  ||d||  lg(rg) alpha_du alpha_pr  ls
   0 -7.9929920e-01 0.00e+00 4.79e+01   0.0 0.00e+00    -  0.00e+00 0.00e+00   0
   1 -9.6084740e+01 0.00e+00 3.72e+01   0.0 1.37e+00    -  2.59e-02 1.00e+00f  1
   2 -2.4878826e+02 0.00e+00 1.53e-01   0.3 5.90e+00    -  8.93e-01 1.00e+00f  1
   3 -2.4899964e+02 0.00e+00 4.76e-03  -5.4 2.69e-01    -  9.96e-01 1.00e+00f  1
   4 -2.4900000e+02 0.00e+00 2.47e-04  -3.0 1.62e-02    -  9.95e-01 1.00e+00f  1
   5 -2.4900000e+02 0.00e+00 1.92e-06  -8.7 1.13e-04    -  9.96e-01 1.00e+00f  1
   6 -2.4900000e+02 0.00e+00 2.44e-11 -11.0 4.31e-09    -  1.00e+00 1.00e+00f  1

Number of Iterations....: 6

                                   (scaled)                 (unscaled)
Objective...............:  -2.4899999999999997e+02   -2.4899999999999997e+02
Dual infeasibility......:   2.4442684391546454e-11    2.4442684391546454e-11
Constraint violation....:   0.0000000000000000e+00    0.0000000000000000e+00
Complementarity.........:   1.8104638930009837e-10    1.8104638930009837e-10
Overall NLP error.......:   1.8104638930009837e-10    1.8104638930009837e-10


Number of objective function evaluations             = 7
Number of objective gradient evaluations             = 7
Number of equality constraint evaluations            = 0
Number of inequality constraint evaluations          = 0
Number of equality constraint Jacobian evaluations   = 0
Number of inequality constraint Jacobian evaluations = 0
Number of Lagrangian Hessian evaluations             = 6
Total CPU secs in IPOPT (w/o function evaluations)   =      0.024
Total CPU secs in NLP function evaluations           =      0.000

EXIT: Optimal Solution Found.
